SDVRP instances/custom_instances/p10_19_split0.vrp
NAME:p10_19_split
BEST_KNOWN: 0
COMMENT: 0
DIMENSION: 895
CAPACITY: 200
EDGE_WEIGHT_FORMAT: FUNCTION
EDGE_WEIGHT_TYPE: EXACT_2D
NODE_COORD_SECTION
1 0.00000 0.00000
2 -26 -24
3 -26 -24
4 -26 -24
5 -26 -24
6 46 50
7 46 50
8 46 50
9 -43 35
10 -43 35
11 -43 35
12 1 -7
13 1 -7
14 38 49
15 38 49
16 33 38
17 33 38
18 33 38
19 33 38
20 33 38
21 -41 -27
22 -41 -27
23 -41 -27
24 -41 -27
25 -41 -27
26 -41 -27
27 -32 13
28 -32 13
29 -32 13
30 -32 13
31 -32 13
32 44 -42
33 44 -42
34 44 -42
35 44 -42
36 44 -42
37 3 22
38 3 22
39 3 22
40 21 -27
41 21 -27
42 21 -27
43 21 -27
44 21 -27
45 -27 -40
46 -27 -40
47 -27 -40
48 -27 -40
49 -27 -40
50 -27 -40
51 -20 23
52 -20 23
53 -20 23
54 -20 23
55 -20 23
56 -20 23
57 4 33
58 4 33
59 4 33
60 4 33
61 4 33
62 4 33
63 -36 3
64 -36 3
65 -36 3
66 -36 3
67 -36 3
68 -36 3
69 -36 3
70 -36 3
71 20 21
72 20 21
73 13 -30
74 13 -30
75 13 -30
76 13 -30
77 13 -30
78 13 -30
79 13 -30
80 -33 -36
81 -33 -36
82 -33 -36
83 -33 -36
84 -33 -36
85 -33 -36
86 -31 30
87 -31 30
88 -31 30
89 -31 30
90 -31 30
91 -31 30
92 -31 30
93 -39 -44
94 -39 -44
95 -39 -44
96 -39 13
97 -39 13
98 -39 13
99 -39 -23
100 6 46
101 6 46
102 6 46
103 6 46
104 6 46
105 -50 -33
106 -50 -33
107 -20 38
108 -20 38
109 30 22
110 30 22
111 30 22
112 30 22
113 30 22
114 30 22
115 30 22
116 -35 -9
117 -35 -9
118 -35 -9
119 -35 -9
120 -35 -9
121 -35 -9
122 31 25
123 31 25
124 31 25
125 31 25
126 31 25
127 31 25
128 39 -39
129 39 -39
130 39 -39
131 39 -39
132 39 -39
133 45 3
134 45 3
135 45 3
136 45 3
137 45 3
138 45 3
139 -10 25
140 -10 25
141 -46 17
142 -46 17
143 -46 17
144 21 -45
145 21 -45
146 21 -45
147 21 -45
148 21 -45
149 21 -45
150 11 -43
151 11 -43
152 11 -43
153 11 -43
154 -24 -9
155 -24 -9
156 -24 -9
157 -24 -9
158 -24 -9
159 -1 11
160 -1 11
161 -1 11
162 24 -26
163 24 -26
164 24 -26
165 24 -28
166 24 -28
167 24 -28
168 24 -28
169 24 -28
170 24 -28
171 24 -28
172 24 -28
173 -13 -15
174 -13 -15
175 -13 -15
176 -13 -15
177 -13 -15
178 -13 -15
179 -13 -15
180 35 6
181 35 6
182 35 6
183 35 6
184 35 6
185 35 6
186 28 14
187 28 14
188 -10 -48
189 -10 -48
190 -10 -48
191 -10 -48
192 13 14
193 13 14
194 13 14
195 13 14
196 13 14
197 42 43
198 42 43
199 42 43
200 42 43
201 42 43
202 -35 -42
203 -35 -42
204 -35 -42
205 -4 -20
206 -4 -20
207 -4 -20
208 -4 -20
209 -4 -20
210 -4 -20
211 24 0
212 24 0
213 40 -46
214 40 -46
215 40 -46
216 40 -46
217 0 49
218 0 49
219 0 49
220 0 49
221 0 49
222 0 49
223 -10 -22
224 -10 -22
225 -10 -22
226 -10 -22
227 -10 -22
228 -10 -22
229 -10 -22
230 -4 20
231 -4 20
232 -4 20
233 -4 20
234 -23 2
235 -23 2
236 -23 2
237 -23 2
238 -23 2
239 -23 2
240 1 28
241 1 28
242 1 28
243 1 28
244 -44 4
245 -44 4
246 -44 4
247 -44 4
248 -44 4
249 -44 4
250 -44 4
251 -24 -14
252 -24 -14
253 -24 -14
254 -24 -14
255 -24 -14
256 36 38
257 36 38
258 36 38
259 36 38
260 36 38
261 -6 -15
262 -6 -15
263 15 44
264 15 44
265 15 44
266 15 44
267 39 20
268 39 20
269 39 20
270 39 20
271 -22 37
272 -22 37
273 -22 37
274 -22 37
275 -22 37
276 -22 37
277 -22 37
278 13 -42
279 13 -42
280 13 -42
281 13 -42
282 13 -42
283 20 -27
284 20 -27
285 20 -27
286 20 -27
287 20 -27
288 13 -14
289 13 -14
290 13 -14
291 13 -14
292 -13 9
293 -13 9
294 -13 9
295 -13 9
296 39 -20
297 39 -20
298 39 -20
299 39 -20
300 39 -20
301 41 11
302 41 11
303 41 11
304 41 11
305 41 11
306 5 28
307 45 3
308 45 3
309 45 3
310 45 3
311 45 3
312 -17 -22
313 -17 -22
314 -17 -22
315 -17 -22
316 -17 -34
317 -17 -34
318 -17 -34
319 -17 -34
320 -34 -28
321 -34 -28
322 -34 -28
323 -34 -28
324 -34 -28
325 30 -24
326 -42 -47
327 -42 -47
328 -42 -47
329 -42 -47
330 -42 -47
331 -42 -47
332 -6 -37
333 -6 -37
334 -6 -37
335 -6 -37
336 -40 -11
337 -40 -11
338 -40 -11
339 35 -22
340 35 -22
341 11 46
342 11 46
343 11 46
344 11 46
345 11 46
346 11 46
347 -37 35
348 -37 35
349 -37 35
350 -26 -15
351 -26 -15
352 -26 -15
353 -26 -15
354 -26 -15
355 -26 -15
356 46 -39
357 46 -39
358 16 5
359 16 5
360 16 5
361 16 5
362 16 5
363 16 5
364 -22 -22
365 -22 -22
366 -22 -22
367 -9 -32
368 -9 -32
369 -9 -32
370 -9 -32
371 -9 -32
372 -9 -32
373 50 6
374 50 6
375 50 6
376 50 6
377 50 6
378 50 6
379 50 6
380 -10 -19
381 -10 -19
382 -10 -19
383 -10 -19
384 -10 -19
385 12 20
386 12 20
387 12 20
388 12 20
389 12 20
390 -24 -14
391 -24 -14
392 2 20
393 2 20
394 2 20
395 2 20
396 2 20
397 2 20
398 -48 -24
399 -48 -24
400 -48 -24
401 -48 -24
402 -48 -24
403 -48 -24
404 -48 -24
405 -12 -33
406 -12 -33
407 -12 -33
408 -12 -33
409 -12 -33
410 -12 -33
411 -12 -33
412 -1 -33
413 -1 -33
414 -1 -33
415 -1 -33
416 -19 -12
417 -19 -12
418 -19 -12
419 -19 -12
420 -19 -12
421 -19 -12
422 -19 -12
423 13 42
424 13 42
425 13 42
426 13 42
427 13 42
428 13 42
429 39 -40
430 39 -40
431 39 -40
432 14 -1
433 14 -1
434 14 -1
435 14 -1
436 6 -36
437 6 -36
438 6 -36
439 6 -36
440 6 -36
441 37 -11
442 37 -11
443 37 -11
444 37 -11
445 37 -11
446 37 -11
447 37 -11
448 -18 6
449 -18 6
450 -18 6
451 -18 6
452 -18 6
453 -18 6
454 -18 6
455 17 10
456 17 10
457 17 10
458 -33 17
459 -33 17
460 -33 17
461 -33 17
462 -33 17
463 -33 17
464 -47 23
465 -47 23
466 -47 23
467 32 -32
468 32 -32
469 32 -32
470 32 -32
471 32 -32
472 32 -32
473 32 -32
474 -50 31
475 -50 31
476 -50 31
477 -50 31
478 -50 31
479 -50 31
480 -46 -1
481 -46 -1
482 -46 -1
483 -15 -3
484 -15 -3
485 -15 -3
486 -15 -3
487 -15 -3
488 -15 -3
489 -25 -26
490 -25 -26
491 -25 -26
492 -25 -26
493 -25 -26
494 -25 -26
495 12 20
496 12 20
497 12 20
498 12 20
499 -37 -4
500 -37 -4
501 -37 -4
502 -37 -4
503 -37 -4
504 22 -27
505 22 -27
506 22 -27
507 22 -27
508 38 -31
509 38 -31
510 -45 5
511 -45 5
512 -45 5
513 -45 5
514 -45 5
515 -45 5
516 40 17
517 40 17
518 40 17
519 40 17
520 37 -30
521 37 -30
522 37 -30
523 -34 17
524 -34 17
525 -34 17
526 -34 17
527 16 -24
528 16 -24
529 16 -24
530 -34 -22
531 -34 -22
532 -34 -22
533 -34 -22
534 -34 -22
535 -22 -34
536 -22 -34
537 -22 -34
538 -22 -34
539 -22 -34
540 28 47
541 28 47
542 28 47
543 28 47
544 28 47
545 28 47
546 9 29
547 9 29
548 9 29
549 47 -31
550 47 -31
551 47 -31
552 47 -31
553 47 -31
554 -29 11
555 -29 11
556 34 43
557 34 43
558 34 43
559 34 43
560 34 43
561 34 43
562 -21 5
563 -21 5
564 -21 5
565 -21 5
566 -21 5
567 38 -9
568 38 -9
569 38 -9
570 5 33
571 5 33
572 5 33
573 -28 40
574 -28 40
575 -28 40
576 -28 40
577 -25 17
578 -25 17
579 -25 17
580 32 12
581 32 12
582 32 12
583 -6 26
584 -6 26
585 -6 26
586 -6 26
587 -6 26
588 -1 50
589 -1 50
590 -1 50
591 -1 50
592 -1 50
593 -1 50
594 -34 -23
595 -34 -23
596 -34 -23
597 -34 -23
598 -15 -43
599 -15 -43
600 -15 -43
601 -15 -43
602 -15 -43
603 -40 -17
604 -40 -17
605 -40 -17
606 34 -45
607 34 -45
608 34 -45
609 31 30
610 31 30
611 31 30
612 31 30
613 -12 36
614 -12 36
615 -12 36
616 -12 36
617 5 -8
618 5 -8
619 5 -8
620 5 -8
621 5 5
622 5 5
623 5 5
624 5 5
625 32 8
626 32 8
627 32 8
628 32 8
629 32 8
630 40 27
631 40 27
632 40 27
633 -49 -32
634 -49 -32
635 -49 -32
636 22 -46
637 22 -46
638 22 -46
639 22 -46
640 19 17
641 19 17
642 19 17
643 43 45
644 43 45
645 43 45
646 43 45
647 43 45
648 43 45
649 43 45
650 -45 -12
651 -45 -12
652 -45 -12
653 -45 -12
654 -45 -12
655 -45 -12
656 0 -44
657 0 -44
658 0 -44
659 0 -44
660 0 -44
661 -37 -44
662 -37 -44
663 -37 -44
664 -37 -44
665 -37 -44
666 3 4
667 3 4
668 3 4
669 3 4
670 3 4
671 -46 -9
672 -46 -9
673 -46 -9
674 -46 -9
675 -46 -9
676 -23 -42
677 -23 -42
678 -23 -42
679 -23 -42
680 -23 -42
681 -23 -42
682 9 -20
683 9 -20
684 9 -20
685 10 -3
686 10 -3
687 10 -3
688 10 -3
689 10 -3
690 -27 -4
691 -27 -4
692 25 -25
693 25 -25
694 25 -25
695 -12 28
696 -12 28
697 -34 -46
698 -34 -46
699 -34 -46
700 -34 -46
701 -34 -46
702 -34 -46
703 44 -13
704 44 -13
705 44 -13
706 -45 25
707 -45 25
708 -45 25
709 -45 25
710 -45 25
711 -45 25
712 -45 25
713 -12 -46
714 -12 -46
715 -12 -46
716 -11 -30
717 -11 -30
718 -11 -30
719 40 9
720 40 9
721 40 9
722 40 9
723 40 9
724 2 -24
725 2 -24
726 2 -24
727 2 -24
728 2 -24
729 -16 12
730 -16 12
731 37 -26
732 37 -26
733 37 -26
734 37 -26
735 37 -26
736 37 -26
737 -45 25
738 -45 25
739 -45 25
740 -45 25
741 -25 -25
742 3 -22
743 3 -22
744 -38 36
745 -38 36
746 -38 36
747 -38 36
748 -38 36
749 -44 43
750 -44 43
751 -44 43
752 -44 43
753 -42 26
754 -42 26
755 -42 26
756 -42 26
757 -42 26
758 -42 26
759 -42 26
760 -44 35
761 -44 35
762 -44 35
763 -44 35
764 -44 35
765 -44 35
766 -44 35
767 -33 -12
768 -33 -12
769 -33 -12
770 27 4
771 27 4
772 27 4
773 27 4
774 27 4
775 -30 -4
776 -30 -4
777 -30 -4
778 -30 -4
779 -30 -4
780 19 11
781 19 11
782 -37 18
783 -37 18
784 -37 18
785 -37 18
786 -37 18
787 -37 18
788 -37 18
789 10 -46
790 10 -46
791 10 -46
792 10 -46
793 14 -28
794 14 -28
795 14 -28
796 14 -28
797 14 -28
798 14 -28
799 11 22
800 11 22
801 11 22
802 11 22
803 -24 44
804 -24 44
805 -24 44
806 -24 44
807 -24 44
808 4 29
809 4 29
810 4 29
811 -11 27
812 -11 27
813 -11 27
814 -11 27
815 -31 23
816 -31 23
817 -31 23
818 -31 23
819 -31 23
820 -15 18
821 -15 18
822 -15 18
823 -15 18
824 -15 18
825 -20 -16
826 -20 -16
827 -20 -16
828 -20 -16
829 2 2
830 2 2
831 2 2
832 2 2
833 2 2
834 2 2
835 2 2
836 8 -38
837 8 -38
838 8 -38
839 8 -38
840 8 -38
841 8 -38
842 -9 -36
843 -9 -36
844 -9 -36
845 -6 35
846 -6 35
847 -6 35
848 41 -31
849 41 -31
850 25 10
851 25 10
852 25 10
853 25 10
854 25 10
855 25 10
856 25 10
857 6 -43
858 6 -43
859 6 -43
860 6 -43
861 45 -41
862 45 -41
863 45 -41
864 45 -41
865 1 41
866 1 41
867 1 41
868 1 41
869 1 41
870 -39 -44
871 -39 -44
872 -39 -44
873 -13 12
874 -13 12
875 -13 12
876 -13 12
877 -33 32
878 -33 32
879 -33 32
880 -33 32
881 -33 32
882 46 28
883 46 28
884 46 28
885 46 28
886 46 28
887 46 28
888 46 28
889 50 -18
890 50 -18
891 50 -18
892 50 -18
893 50 -18
894 50 -18
895 50 -18
DEMAND_SECTION
1 0
2 40
3 40
4 2
5 2
6 40
7 2
8 1
9 40
10 40
11 10
12 40
13 40
14 40
15 20
16 40
17 20
18 10
19 2
20 2
21 20
22 10
23 2
24 2
25 2
26 1
27 40
28 20
29 2
30 2
31 1
32 40
33 20
34 10
35 2
36 2
37 40
38 40
39 1
40 40
41 10
42 2
43 2
44 1
45 40
46 40
47 2
48 2
49 2
50 2
51 20
52 10
53 2
54 2
55 2
56 2
57 40
58 40
59 2
60 2
61 2
62 1
63 40
64 40
65 10
66 2
67 2
68 2
69 2
70 1
71 20
72 10
73 40
74 20
75 10
76 2
77 2
78 2
79 1
80 40
81 40
82 2
83 2
84 2
85 1
86 40
87 20
88 2
89 2
90 2
91 2
92 1
93 40
94 40
95 20
96 40
97 40
98 2
99 40
100 40
101 20
102 2
103 2
104 1
105 40
106 40
107 40
108 40
109 40
110 40
111 10
112 2
113 2
114 2
115 2
116 40
117 40
118 2
119 2
120 2
121 2
122 40
123 40
124 2
125 2
126 2
127 2
128 40
129 40
130 2
131 2
132 1
133 20
134 10
135 2
136 2
137 2
138 1
139 40
140 1
141 20
142 10
143 2
144 40
145 10
146 2
147 2
148 2
149 2
150 40
151 2
152 2
153 1
154 40
155 40
156 2
157 2
158 2
159 40
160 10
161 1
162 40
163 20
164 1
165 40
166 20
167 10
168 2
169 2
170 2
171 2
172 1
173 40
174 20
175 10
176 2
177 2
178 2
179 1
180 40
181 40
182 2
183 2
184 2
185 2
186 40
187 2
188 40
189 20
190 10
191 1
192 20
193 2
194 2
195 2
196 2
197 40
198 10
199 2
200 2
201 2
202 40
203 40
204 2
205 20
206 2
207 2
208 2
209 2
210 1
211 40
212 2
213 40
214 40
215 2
216 2
217 40
218 20
219 2
220 2
221 2
222 2
223 40
224 20
225 10
226 2
227 2
228 2
229 1
230 40
231 2
232 2
233 2
234 20
235 10
236 2
237 2
238 2
239 1
240 40
241 20
242 2
243 1
244 40
245 40
246 10
247 2
248 2
249 2
250 1
251 20
252 2
253 2
254 2
255 1
256 20
257 2
258 2
259 2
260 2
261 40
262 2
263 20
264 2
265 2
266 2
267 40
268 10
269 2
270 2
271 40
272 20
273 2
274 2
275 2
276 2
277 1
278 40
279 40
280 10
281 2
282 1
283 40
284 10
285 2
286 2
287 1
288 40
289 2
290 2
291 1
292 40
293 10
294 2
295 2
296 40
297 10
298 2
299 2
300 1
301 40
302 20
303 10
304 2
305 2
306 40
307 40
308 2
309 2
310 2
311 2
312 40
313 40
314 10
315 2
316 20
317 2
318 2
319 1
320 40
321 2
322 2
323 2
324 2
325 40
326 40
327 40
328 2
329 2
330 2
331 1
332 40
333 10
334 2
335 1
336 40
337 10
338 1
339 40
340 20
341 40
342 20
343 2
344 2
345 2
346 2
347 40
348 10
349 1
350 40
351 20
352 2
353 2
354 2
355 1
356 40
357 1
358 40
359 40
360 2
361 2
362 2
363 1
364 40
365 10
366 1
367 20
368 10
369 2
370 2
371 2
372 2
373 40
374 20
375 10
376 2
377 2
378 2
379 1
380 40
381 40
382 10
383 2
384 1
385 40
386 10
387 2
388 2
389 1
390 40
391 40
392 40
393 10
394 2
395 2
396 2
397 2
398 40
399 20
400 2
401 2
402 2
403 2
404 1
405 40
406 40
407 10
408 2
409 2
410 2
411 1
412 40
413 2
414 2
415 2
416 20
417 10
418 2
419 2
420 2
421 2
422 1
423 40
424 20
425 10
426 2
427 2
428 2
429 40
430 10
431 2
432 20
433 2
434 2
435 1
436 40
437 40
438 10
439 2
440 1
441 40
442 40
443 2
444 2
445 2
446 2
447 1
448 40
449 20
450 10
451 2
452 2
453 2
454 1
455 20
456 10
457 1
458 20
459 10
460 2
461 2
462 2
463 1
464 40
465 20
466 10
467 40
468 10
469 2
470 2
471 2
472 2
473 1
474 40
475 20
476 2
477 2
478 2
479 2
480 40
481 40
482 10
483 20
484 10
485 2
486 2
487 2
488 2
489 40
490 20
491 2
492 2
493 2
494 1
495 40
496 10
497 2
498 2
499 40
500 2
501 2
502 2
503 2
504 20
505 10
506 2
507 2
508 40
509 40
510 40
511 20
512 10
513 2
514 2
515 2
516 20
517 10
518 2
519 1
520 20
521 10
522 2
523 40
524 2
525 2
526 2
527 40
528 2
529 2
530 20
531 2
532 2
533 2
534 2
535 20
536 10
537 2
538 2
539 1
540 40
541 40
542 2
543 2
544 2
545 2
546 40
547 20
548 1
549 40
550 20
551 10
552 2
553 1
554 40
555 40
556 40
557 40
558 10
559 2
560 2
561 1
562 40
563 40
564 2
565 2
566 1
567 40
568 10
569 1
570 40
571 40
572 10
573 40
574 2
575 2
576 2
577 40
578 20
579 1
580 40
581 20
582 2
583 40
584 20
585 2
586 2
587 1
588 40
589 20
590 2
591 2
592 2
593 1
594 40
595 2
596 2
597 1
598 40
599 40
600 10
601 2
602 2
603 40
604 10
605 1
606 40
607 40
608 1
609 40
610 2
611 2
612 1
613 20
614 2
615 2
616 1
617 40
618 10
619 2
620 2
621 40
622 20
623 2
624 2
625 40
626 10
627 2
628 2
629 1
630 40
631 20
632 2
633 40
634 10
635 2
636 20
637 10
638 2
639 1
640 40
641 20
642 2
643 40
644 20
645 2
646 2
647 2
648 2
649 1
650 40
651 2
652 2
653 2
654 2
655 1
656 20
657 2
658 2
659 2
660 1
661 40
662 20
663 10
664 2
665 1
666 40
667 40
668 2
669 2
670 1
671 20
672 10
673 2
674 2
675 2
676 40
677 20
678 2
679 2
680 2
681 1
682 40
683 20
684 10
685 40
686 2
687 2
688 2
689 2
690 40
691 20
692 40
693 40
694 10
695 40
696 1
697 40
698 2
699 2
700 2
701 2
702 1
703 40
704 40
705 20
706 40
707 20
708 2
709 2
710 2
711 2
712 1
713 40
714 2
715 1
716 40
717 10
718 1
719 20
720 2
721 2
722 2
723 2
724 40
725 40
726 2
727 2
728 1
729 40
730 2
731 20
732 10
733 2
734 2
735 2
736 2
737 40
738 40
739 2
740 2
741 40
742 40
743 40
744 40
745 20
746 2
747 2
748 1
749 20
750 10
751 2
752 2
753 20
754 10
755 2
756 2
757 2
758 2
759 1
760 20
761 10
762 2
763 2
764 2
765 2
766 1
767 40
768 10
769 2
770 40
771 40
772 2
773 2
774 1
775 40
776 40
777 2
778 2
779 2
780 40
781 10
782 40
783 20
784 10
785 2
786 2
787 2
788 2
789 40
790 40
791 2
792 1
793 40
794 40
795 10
796 2
797 2
798 2
799 40
800 10
801 2
802 2
803 40
804 40
805 2
806 2
807 1
808 40
809 20
810 1
811 40
812 20
813 10
814 2
815 40
816 40
817 10
818 2
819 1
820 40
821 40
822 2
823 2
824 1
825 40
826 20
827 10
828 2
829 40
830 40
831 10
832 2
833 2
834 2
835 1
836 20
837 2
838 2
839 2
840 2
841 1
842 40
843 40
844 1
845 40
846 10
847 1
848 40
849 40
850 40
851 20
852 10
853 2
854 2
855 2
856 2
857 40
858 20
859 2
860 2
861 40
862 20
863 2
864 2
865 40
866 20
867 2
868 2
869 2
870 20
871 10
872 1
873 20
874 2
875 2
876 1
877 40
878 10
879 2
880 2
881 2
882 40
883 20
884 2
885 2
886 2
887 2
888 1
889 40
890 20
891 10
892 2
893 2
894 2
895 2
DEPOT_SECTION
1
-1
EOF