SDVRP instances/custom_instances/p10_19_split0.sol
894 -4 1 3 2 740 489 492 490 488 493 491 175 178 176 177 -10 9 8 763 760 762 759 764 761 765 749 750 748 751 878 880 86 91 51 55 -11 12 618 617 616 619 686 685 684 688 687 -19 17 16 15 18 540 542 544 543 539 541 264 262 263 265 424 426 -38 36 37 396 395 392 391 394 393 159 160 158 -54 50 52 53 879 876 877 745 747 746 743 744 347 346 348 90 87 89 -66 69 68 65 62 63 67 64 481 479 480 -70 123 122 121 126 124 125 109 110 108 -71 112 114 113 111 629 630 631 885 887 886 883 884 882 881 185 186 853 361 360 362 -75 78 77 76 72 73 74 793 792 797 526 -79 81 80 82 201 203 202 534 536 538 535 -84 83 92 869 93 94 871 870 660 661 664 -85 88 573 572 575 574 803 802 805 806 804 614 613 612 615 -117 120 118 337 335 336 672 673 671 674 670 652 653 651 654 650 649 603 604 602 -127 128 31 35 34 32 429 430 428 -136 307 306 135 309 137 134 310 133 308 132 377 373 376 374 378 375 372 718 719 720 721 722 181 183 182 771 -138 139 813 811 812 810 823 821 819 820 822 -142 140 141 463 465 464 477 473 475 478 474 476 784 785 786 457 460 -163 162 161 691 692 693 324 -164 165 168 169 506 505 503 504 43 41 42 39 40 286 282 285 -170 167 166 171 467 466 730 298 299 297 296 295 339 338 -173 825 826 827 824 156 155 157 153 154 487 482 -174 172 313 312 314 311 365 363 364 -184 180 179 625 628 627 624 626 580 581 579 -191 195 192 193 194 384 385 496 497 387 495 494 386 388 798 -199 197 200 198 196 647 643 642 648 644 645 646 5 6 7 259 256 255 258 257 -205 207 206 208 209 204 369 368 366 371 405 409 404 406 408 717 716 715 -227 224 316 317 318 315 696 701 699 700 698 697 325 328 329 326 327 330 662 663 -229 584 582 585 586 583 845 844 846 239 -230 231 232 695 694 107 106 271 270 274 272 276 273 275 -236 238 235 234 233 237 774 775 776 777 778 689 690 483 485 486 484 -242 240 241 59 61 60 57 56 58 571 569 570 -245 247 248 249 246 244 243 514 511 513 509 510 512 -251 254 390 250 389 252 253 350 353 349 354 351 352 421 415 -260 261 223 222 226 228 225 381 383 380 379 382 -281 277 278 279 280 637 638 635 636 146 143 147 148 145 144 795 796 794 -288 289 290 287 682 683 681 742 741 -293 292 578 576 577 815 814 816 818 817 873 875 874 872 -294 291 450 451 448 449 453 447 565 561 562 563 -302 300 303 304 301 518 516 517 515 267 268 269 266 454 456 455 -320 322 319 323 321 22 21 20 23 24 397 398 399 401 400 402 403 98 595 594 596 533 -358 854 852 850 855 849 851 772 770 769 773 -359 357 779 780 640 641 639 620 -370 367 843 842 841 334 332 331 333 411 414 413 412 -410 407 599 598 601 712 713 714 188 189 187 190 657 656 659 658 655 -420 419 417 416 418 766 767 768 116 115 119 498 500 499 502 501 -422 423 427 425 344 343 340 342 345 341 101 99 100 102 103 866 -433 431 434 432 210 211 566 441 445 444 443 440 -446 442 894 893 890 891 889 892 888 704 703 702 568 567 -452 554 553 29 27 30 28 26 522 525 458 462 -459 461 523 524 738 737 707 711 709 710 739 705 708 706 736 752 758 753 754 755 757 756 -471 472 469 470 468 131 129 130 214 212 215 213 607 605 606 283 284 527 528 -519 521 507 508 847 848 731 734 733 735 732 -520 33 862 863 861 860 355 356 552 548 550 551 549 -530 529 532 531 25 632 634 633 104 105 593 -537 48 47 44 49 46 45 678 679 680 675 676 677 597 600 -556 560 557 555 559 558 13 14 611 608 609 610 -564 96 95 97 787 781 783 782 728 729 -592 589 590 591 587 588 220 219 217 218 216 221 865 867 864 868 -622 623 621 799 801 800 546 545 547 305 807 809 808 -666 665 667 668 669 833 830 828 829 834 831 832 -725 727 726 724 723 436 439 438 437 435 838 835 -836 837 839 840 152 150 151 149 791 789 788 790 859 858 856 857 0 





OBJ=
5555.439
BEST_KNOWN=
0.000